
Gurobi 9.5.1 (linux64) logging started Tue Jun 14 18:00:41 2022

Set parameter LogFile to value "../results/logs/log_Gowalla_edges_3_250_2022_06_14_14_44.log"
Set parameter LazyConstraints to value 1
Gurobi Optimizer version 9.5.1 build v9.5.1rc2 (linux64)
Thread count: 8 physical cores, 8 logical processors, using up to 8 threads
Optimize a model with 20527 rows, 393182 columns and 191427 nonzeros
Model fingerprint: 0x70f0152b
Variable types: 0 continuous, 393182 integer (393182 binary)
Coefficient statistics:
  Matrix range     [1e+00, 3e+00]
  Objective range  [1e+00, 1e+00]
  Bounds range     [1e+00, 1e+00]
  RHS range        [1e+00, 2e+02]
Found heuristic solution: objective 106417.00000
Presolve removed 0 rows and 292745 columns
Presolve time: 0.21s
Presolved: 20527 rows, 100437 columns, 146830 nonzeros
Variable types: 0 continuous, 100437 integer (100437 binary)
Found heuristic solution: objective 106673.00000

Deterministic concurrent LP optimizer: primal and dual simplex
Showing first log only...


Use crossover to convert LP symmetric solution to basic solution...
Concurrent spin time: 0.00s

Solved with primal simplex

Root relaxation: objective 1.081922e+05, 2927 iterations, 0.11 seconds (0.08 work units)

    Nodes    |    Current Node    |     Objective Bounds      |     Work
 Expl Unexpl |  Obj  Depth IntInf | Incumbent    BestBd   Gap | It/Node Time

     0     0 108192.189    0 1994 106673.000 108192.189  1.42%     -    1s
H    0     0                    106994.00000 108192.189  1.12%     -    1s
H    0     0                    107025.00000 108192.189  1.09%     -    1s
H    0     0                    107045.00000 108192.189  1.07%     -    1s
H    0     0                    107047.00000 108192.189  1.07%     -    1s
     0     0 107346.350    0  429 107047.000 107346.350  0.28%     -   11s
H    0     0                    107292.00000 107346.350  0.05%     -   11s
H    0     0                    107293.00000 107346.350  0.05%     -   12s
     0     0 107344.091    0  428 107293.000 107344.091  0.05%     -   21s
     0     0 107303.818    0   48 107293.000 107303.818  0.01%     -   30s
H    0     0                    107297.00000 107303.818  0.01%     -   30s
     0     0 107300.515    0   20 107297.000 107300.515  0.00%     -   41s
H    0     0                    107299.00000 107300.515  0.00%     -   41s
     0     0     cutoff    0      107299.000 107299.000  0.00%     -   50s

Cutting planes:
  Gomory: 227
  Cover: 1186
  Clique: 1
  MIR: 802
  StrongCG: 23
  GUB cover: 1382
  Zero half: 191
  RLT: 43
  Lazy constraints: 4

Explored 1 nodes (5617 simplex iterations) in 50.79 seconds (4.22 work units)
Thread count was 8 (of 8 available processors)

Solution count 10: 107299 107297 107293 ... 106417

Optimal solution found (tolerance 0.00e+00)
Best objective 1.072990000005e+05, best bound 1.072990000005e+05, gap 0.0000%

User-callback calls 1732, time in user-callback 46.79 sec
